73
120
96	14
95	13
94	12
93	11
92	4
91	11
90	6
89	8
88	9
87	15
86	9
85	11
84	12
83	11
82	13
81	14
80	11
79	14
78	8
77	9
76	11
75	6
74	13
73	10
72	5
71	6
70	11
69	10
68	9
67	4
66	8
65	10
64	11
63	13
62	6
61	12
60	9
59	19
58	9
57	14
56	18
55	12
54	10
53	7
52	10
51	8
50	11
49	14
48	8
47	5
46	13
45	11
44	8
43	15
42	7
41	12
40	10
39	11
38	12
37	9
36	8
35	11
34	9
33	11
32	11
31	8
30	12
29	13
28	7
27	6
26	9
25	12
24	11
